Running for instance ./models/rc101.txt
Optimize a model with 101 rows, 2000 columns and 9191 nonzeros
Variable types: 0 continuous, 2000 integer (0 binary)
Coefficient statistics:
  Matrix range     [1e+00, 1e+00]
  Objective range  [4e+01, 2e+02]
  Bounds range     [1e+00, 1e+00]
  RHS range        [1e+00, 2e+01]
Presolve removed 0 rows and 16 columns
Presolve time: 0.02s
Presolved: 101 rows, 1984 columns, 9119 nonzeros
Variable types: 0 continuous, 1984 integer (1984 binary)

Root relaxation: infeasible, 396 iterations, 0.01 seconds

    Nodes    |    Current Node    |     Objective Bounds      |     Work
 Expl Unexpl |  Obj  Depth IntInf | Incumbent    BestBd   Gap | It/Node Time

     0     0 infeasible    0               - infeasible      -     -    0s

Explored 0 nodes (396 simplex iterations) in 0.05 seconds
Thread count was 8 (of 8 available processors)

Solution count 0

Model is infeasible
Best objective -, best bound -, gap -
('Encountered an attribute error', AttributeError("Unable to retrieve attribute 'x'",))
Execution time:  0.0894354166667  minutes
